4C-graphite:
1.00
     2.468252690  0.000000000  0.000000000    
    -1.234126345  2.137569533 -0.000000000    
     0.000000000 -0.000000000 19.998384887    
C
2 
direct 
   0.000000000         0.000000000         0.50000000  
   0.333333333         0.666666667         0.50000000  

