4C-graphite:
1.00
   2.4657000000         0.0000000000         0.0000000000
  -1.2328500000         2.1353588381         0.0000000000
   0.0000000000         0.0000000000         20.00000000
2 
direct 
   0.000000000         0.000000000         0.50000000  C1
   0.333333333         0.666666667         0.50000000  C2

