H
   1.0
    12.3285000000000000    0.0000000000000000    0.0000000000000000
    -6.1642500000000000   10.6767941905000008    0.0000000000000000
     0.0000000000000000    0.0000000000000000   20.0000000000000000
  50
Direct
  0.0000000000000000  0.0000000000000000  0.5000000000000000
  0.2000000000000000  0.0000000000000000  0.5000000000000000
  0.4000000000000000  0.0000000000000000  0.5000000000000000
  0.6000000000000000  0.0000000000000000  0.5000000000000000
  0.8000000000000000  0.0000000000000000  0.5000000000000000
  0.0000000000000000  0.2000000000000000  0.5000000000000000
  0.2000000000000000  0.2000000000000000  0.5000000000000000
  0.4000000000000000  0.2000000000000000  0.5000000000000000
  0.6000000000000000  0.2000000000000000  0.5000000000000000
  0.8000000000000000  0.2000000000000000  0.5000000000000000
  0.0000000000000000  0.4000000000000000  0.5000000000000000
  0.2000000000000000  0.4000000000000000  0.5000000000000000
  0.4000000000000000  0.4000000000000000  0.5000000000000000
  0.6000000000000000  0.4000000000000000  0.5000000000000000
  0.8000000000000000  0.4000000000000000  0.5000000000000000
  0.0000000000000000  0.6000000000000000  0.5000000000000000
  0.2000000000000000  0.6000000000000000  0.5000000000000000
  0.4000000000000000  0.6000000000000000  0.5000000000000000
  0.6000000000000000  0.6000000000000000  0.5000000000000000
  0.8000000000000000  0.6000000000000000  0.5000000000000000
  0.0000000000000000  0.8000000000000000  0.5000000000000000
  0.2000000000000000  0.8000000000000000  0.5000000000000000
  0.4000000000000000  0.8000000000000000  0.5000000000000000
  0.6000000000000000  0.8000000000000000  0.5000000000000000
  0.8000000000000000  0.8000000000000000  0.5000000000000000
  0.0666666666000000  0.1333333334000000  0.5000000000000000
  0.2666666666000000  0.1333333334000000  0.5000000000000000
  0.4666666666000000  0.1333333334000000  0.5000000000000000
  0.6666666666000001  0.1333333334000000  0.5000000000000000
  0.8666666665999999  0.1333333334000000  0.5000000000000000
  0.0666666666000000  0.3333333334000000  0.5000000000000000
  0.2666666666000000  0.3333333334000000  0.5000000000000000
  0.4666666666000000  0.3333333334000000  0.5000000000000000
  0.6666666666000001  0.3333333334000000  0.5000000000000000
  0.8666666665999999  0.3333333334000000  0.5000000000000000
  0.0666666666000000  0.5333333334000000  0.5000000000000000
  0.2666666666000000  0.5333333334000000  0.5000000000000000
  0.4666666666000000  0.5333333334000000  0.5000000000000000
  0.6666666666000001  0.5333333334000000  0.5000000000000000
  0.8666666665999999  0.5333333334000000  0.5000000000000000
  0.0666666666000000  0.7333333334000000  0.5000000000000000
  0.2666666666000000  0.7333333334000000  0.5000000000000000
  0.4666666666000000  0.7333333334000000  0.5000000000000000
  0.6666666666000001  0.7333333334000000  0.5000000000000000
  0.8666666665999999  0.7333333334000000  0.5000000000000000
  0.0666666666000000  0.9333333334000000  0.5000000000000000
  0.2666666666000000  0.9333333334000000  0.5000000000000000
  0.4666666666000000  0.9333333334000000  0.5000000000000000
  0.6666666666000001  0.9333333334000000  0.5000000000000000
  0.8666666665999999  0.9333333334000000  0.5000000000000000
